n = 3;
n2 = 7;
n3 = 21;
match12 = [|
81, 87, 0, 87, 91, 87, 87|
83, 0, 87, 0, 88, 0, 0|
78, 88, 91, 88, 0, 88, 88|];
match23 = [|
83, 83, 83, 83, 83, 84, 83, 83, 83, 83, 83, 83, 83, 83, 78, 84, 80, 86, 83, 83, 83|
0, 0, 0, 0, 0, 18, 0, 0, 0, 0, 7, 0, 0, 0, 88, 18, 87, 12, 0, 0, 0|
87, 87, 87, 87, 87, 94, 87, 87, 87, 87, 87, 87, 87, 87, 91, 94, 3, 84, 87, 87, 87|
0, 0, 0, 0, 0, 18, 0, 0, 0, 0, 7, 0, 0, 0, 88, 18, 87, 12, 0, 0, 0|
88, 88, 88, 88, 88, 78, 88, 88, 88, 88, 84, 88, 88, 88, 0, 78, 88, 84, 88, 88, 88|
0, 0, 0, 0, 0, 18, 0, 0, 0, 0, 7, 0, 0, 0, 88, 18, 87, 12, 0, 0, 0|
0, 0, 0, 0, 0, 18, 0, 0, 0, 0, 7, 0, 0, 0, 88, 18, 87, 12, 0, 0, 0|];
match31 = [|
87, 0, 88, 100, 100, 100, 100, 100, 100, 100, 100, 100, 100, 100, 100, 100, 100, 100, 100, 100, 100|
87, 0, 88, 100, 100, 100, 100, 100, 100, 100, 100, 100, 100, 100, 100, 100, 100, 100, 100, 100, 100|
87, 0, 88, 100, 100, 100, 100, 100, 100, 100, 100, 100, 100, 100, 100, 100, 100, 100, 100, 100, 100|
87, 0, 88, 100, 100, 100, 100, 100, 100, 100, 100, 100, 100, 100, 100, 100, 100, 100, 100, 100, 100|
87, 0, 88, 100, 100, 100, 100, 100, 100, 100, 100, 100, 100, 100, 100, 100, 100, 100, 100, 100, 100|
94, 18, 78, 100, 100, 100, 100, 100, 100, 100, 100, 100, 100, 100, 100, 100, 100, 100, 100, 100, 100|
87, 0, 88, 100, 100, 100, 100, 100, 100, 100, 100, 100, 100, 100, 100, 100, 100, 100, 100, 100, 100|
87, 0, 88, 100, 100, 100, 100, 100, 100, 100, 100, 100, 100, 100, 100, 100, 100, 100, 100, 100, 100|
87, 0, 88, 100, 100, 100, 100, 100, 100, 100, 100, 100, 100, 100, 100, 100, 100, 100, 100, 100, 100|
87, 0, 88, 100, 100, 100, 100, 100, 100, 100, 100, 100, 100, 100, 100, 100, 100, 100, 100, 100, 100|
87, 7, 84, 100, 100, 100, 100, 100, 100, 100, 100, 100, 100, 100, 100, 100, 100, 100, 100, 100, 100|
87, 0, 88, 100, 100, 100, 100, 100, 100, 100, 100, 100, 100, 100, 100, 100, 100, 100, 100, 100, 100|
87, 0, 88, 100, 100, 100, 100, 100, 100, 100, 100, 100, 100, 100, 100, 100, 100, 100, 100, 100, 100|
87, 0, 88, 100, 100, 100, 100, 100, 100, 100, 100, 100, 100, 100, 100, 100, 100, 100, 100, 100, 100|
91, 88, 0, 100, 100, 100, 100, 100, 100, 100, 100, 100, 100, 100, 100, 100, 100, 100, 100, 100, 100|
94, 18, 78, 100, 100, 100, 100, 100, 100, 100, 100, 100, 100, 100, 100, 100, 100, 100, 100, 100, 100|
3, 87, 88, 100, 100, 100, 100, 100, 100, 100, 100, 100, 100, 100, 100, 100, 100, 100, 100, 100, 100|
84, 12, 84, 100, 100, 100, 100, 100, 100, 100, 100, 100, 100, 100, 100, 100, 100, 100, 100, 100, 100|
87, 0, 88, 100, 100, 100, 100, 100, 100, 100, 100, 100, 100, 100, 100, 100, 100, 100, 100, 100, 100|
87, 0, 88, 100, 100, 100, 100, 100, 100, 100, 100, 100, 100, 100, 100, 100, 100, 100, 100, 100, 100|
87, 0, 88, 100, 100, 100, 100, 100, 100, 100, 100, 100, 100, 100, 100, 100, 100, 100, 100, 100, 100|];
